certificates/rado_a15_c191_N41.cnf
c Rad2 upper bound instance: x1 + 15*x2 - x3 = 191, interval [1,41]
p cnf 41 222
1 5 13 0
-1 -5 -13 0
1 14 20 0
-1 -14 -20 0
1 15 35 0
-1 -15 -35 0
2 6 13 0
-2 -6 -13 0
2 14 21 0
-2 -14 -21 0
2 15 36 0
-2 -15 -36 0
3 7 13 0
-3 -7 -13 0
3 14 22 0
-3 -14 -22 0
3 15 37 0
-3 -15 -37 0
4 8 13 0
-4 -8 -13 0
4 14 23 0
-4 -14 -23 0
4 15 38 0
-4 -15 -38 0
5 9 13 0
-5 -9 -13 0
5 14 24 0
-5 -14 -24 0
5 15 39 0
-5 -15 -39 0
6 10 13 0
-6 -10 -13 0
6 14 25 0
-6 -14 -25 0
6 15 40 0
-6 -15 -40 0
7 11 13 0
-7 -11 -13 0
7 14 26 0
-7 -14 -26 0
7 15 41 0
-7 -15 -41 0
8 12 13 0
-8 -12 -13 0
8 14 27 0
-8 -14 -27 0
9 13 0
-9 -13 0
9 14 28 0
-9 -14 -28 0
10 13 14 0
-10 -13 -14 0
10 14 29 0
-10 -14 -29 0
11 13 15 0
-11 -13 -15 0
11 14 30 0
-11 -14 -30 0
1 12 0
-1 -12 0
12 13 16 0
-12 -13 -16 0
12 14 31 0
-12 -14 -31 0
2 12 13 0
-2 -12 -13 0
13 17 0
-13 -17 0
13 14 32 0
-13 -14 -32 0
3 12 14 0
-3 -12 -14 0
13 14 18 0
-13 -14 -18 0
14 33 0
-14 -33 0
4 12 15 0
-4 -12 -15 0
13 15 19 0
-13 -15 -19 0
14 15 34 0
-14 -15 -34 0
5 12 16 0
-5 -12 -16 0
13 16 20 0
-13 -16 -20 0
14 16 35 0
-14 -16 -35 0
6 12 17 0
-6 -12 -17 0
13 17 21 0
-13 -17 -21 0
14 17 36 0
-14 -17 -36 0
7 12 18 0
-7 -12 -18 0
13 18 22 0
-13 -18 -22 0
14 18 37 0
-14 -18 -37 0
8 12 19 0
-8 -12 -19 0
13 19 23 0
-13 -19 -23 0
14 19 38 0
-14 -19 -38 0
9 12 20 0
-9 -12 -20 0
13 20 24 0
-13 -20 -24 0
14 20 39 0
-14 -20 -39 0
10 12 21 0
-10 -12 -21 0
13 21 25 0
-13 -21 -25 0
14 21 40 0
-14 -21 -40 0
11 12 22 0
-11 -12 -22 0
13 22 26 0
-13 -22 -26 0
14 22 41 0
-14 -22 -41 0
12 23 0
-12 -23 0
13 23 27 0
-13 -23 -27 0
12 13 24 0
-12 -13 -24 0
13 24 28 0
-13 -24 -28 0
12 14 25 0
-12 -14 -25 0
13 25 29 0
-13 -25 -29 0
12 15 26 0
-12 -15 -26 0
13 26 30 0
-13 -26 -30 0
1 11 27 0
-1 -11 -27 0
12 16 27 0
-12 -16 -27 0
13 27 31 0
-13 -27 -31 0
2 11 28 0
-2 -11 -28 0
12 17 28 0
-12 -17 -28 0
13 28 32 0
-13 -28 -32 0
3 11 29 0
-3 -11 -29 0
12 18 29 0
-12 -18 -29 0
13 29 33 0
-13 -29 -33 0
4 11 30 0
-4 -11 -30 0
12 19 30 0
-12 -19 -30 0
13 30 34 0
-13 -30 -34 0
5 11 31 0
-5 -11 -31 0
12 20 31 0
-12 -20 -31 0
13 31 35 0
-13 -31 -35 0
6 11 32 0
-6 -11 -32 0
12 21 32 0
-12 -21 -32 0
13 32 36 0
-13 -32 -36 0
7 11 33 0
-7 -11 -33 0
12 22 33 0
-12 -22 -33 0
13 33 37 0
-13 -33 -37 0
8 11 34 0
-8 -11 -34 0
12 23 34 0
-12 -23 -34 0
13 34 38 0
-13 -34 -38 0
9 11 35 0
-9 -11 -35 0
12 24 35 0
-12 -24 -35 0
13 35 39 0
-13 -35 -39 0
10 11 36 0
-10 -11 -36 0
12 25 36 0
-12 -25 -36 0
13 36 40 0
-13 -36 -40 0
11 37 0
-11 -37 0
12 26 37 0
-12 -26 -37 0
13 37 41 0
-13 -37 -41 0
11 12 38 0
-11 -12 -38 0
12 27 38 0
-12 -27 -38 0
11 13 39 0
-11 -13 -39 0
12 28 39 0
-12 -28 -39 0
11 14 40 0
-11 -14 -40 0
12 29 40 0
-12 -29 -40 0
11 15 41 0
-11 -15 -41 0
12 30 41 0
-12 -30 -41 0
