certificates/rado_a15_c191_N41.drat
-37 -41 0
13 8 -41 0
-40 -41 0
-41 0
-7 -11 0
d -7 -13 -11 0
15 0
13 0
-9 0
-17 0
-11 0
-19 0
35 0
37 0
-39 0
-1 0
-31 0
-33 0
-3 0
12 0
27 0
5 0
14 0
7 0
29 0
-23 0
-40 0
-38 0
-26 0
-18 0
-4 0
-16 0
-24 0
-8 0
-2 0
-25 0
-10 0
-32 0
-34 0
30 0
0
